Problem:    ex1
Rows:       379
Columns:    0
Non-zeros:  0
Status:     OPTIMAL
Objective:  Total_Cost[Lisbon] = 4168988.487 (MINimum)

   No.   Row name   St   Activity     Lower bound   Upper bound    Marginal
------ ------------ -- ------------- ------------- ------------- -------------
     1 Total_Cost[Lisbon]
                    B              0                             
     2 Total_Cost[Porto]
                    B              0                             
     3 Total_Cost[Amadora]
                    B              0                             
     4 Total_Cost[Braga]
                    B              0                             
     5 Total_Cost[Setubal]
                    B              0                             
     6 Total_Cost[Coimbra]
                    B              0                             
     7 Total_Cost[Queluz]
                    B              0                             
     8 Total_Cost[Cacem]
                    B              0                             
     9 Total_Cost[Vila_Nova_de_Gaia]
                    B              0                             
    10 Total_Cost[Algueirao]
                    B              0                             
    11 Total_Cost[Loures]
                    B              0                             
    12 Total_Cost[Felgueiras]
                    B              0                             
    13 Total_Cost[Evora]
                    B              0                             
    14 Total_Cost[Rio_de_Mouro]
                    B              0                             
    15 Total_Cost[Odivelas]
                    B              0                             
    16 Total_Cost[Aveiro]
                    B              0                             
    17 Total_Cost[Amora]
                    B              0                             
    18 Total_Cost[Corroios]
                    B              0                             
    19 Total_Cost[Barreiro]
                    B              0                             
    20 Total_Cost[Monsanto]
                    B              0                             
    21 Total_Cost[Rio_Tinto]
                    B              0                             
    22 Total_Cost[Sao_Domingos_de_Rana]
                    B              0                             
    23 Total_Cost[Figueira_da_Foz]
                    B              0                             
    24 Total_Cost[Leiria]
                    B              0                             
    25 Total_Cost[Ponte_de_Lima]
                    B              0                             
    26 Total_Cost[Faro]
                    B              0                             
    27 Total_Cost[Sesimbra]
                    B              0                             
    28 Total_Cost[Guimaraes]
                    B              0                             
    29 Total_Cost[Ermesinde]
                    B              0                             
    30 Total_Cost[Santo_Antonio_dos_Olivais]
                    B              0                             
    31 Total_Cost[Portimao]
                    B              0                             
    32 Total_Cost[Benfica]
                    B              0                             
    33 Total_Cost[Cascais]
                    B              0                             
    34 Total_Cost[Maia]
                    B              0                             
    35 Total_Cost[Viana_do_Castelo]
                    B              0                             
    36 Total_Cost[Oeiras]
                    B              0                             
    37 Total_Cost[Beja]
                    B              0                             
    38 Total_Cost[Esposende]
                    B              0                             
    39 Total_Cost[Braganca]
                    B              0                             
    40 Total_Cost[Almada]
                    B              0                             
    41 Total_Cost[Olivais]
                    B              0                             
    42 Total_Cost[Castelo_Branco]
                    B              0                             
    43 Total_Cost[Alcabideche]
                    B              0                             
    44 Total_Cost[Espinho]
                    B              0                             
    45 Total_Cost[Guarda]
                    B              0                             
    46 Total_Cost[Alvalade]
                    B              0                             
    47 Total_Cost[Arrentela]
                    B              0                             
    48 Total_Cost[Montijo]
                    B              0                             
    49 Total_Cost[Charneca_de_Caparica]
                    B              0                             
    50 Total_Cost[Santarem]
                    B              0                             
    51 Total_Cost[Olhao]
                    B              0                             
    52 Total_Cost[Povoa_de_Varzim]
                    B              0                             
    53 Total_Cost[Senhora_da_Hora]
                    B              0                             
    54 Total_Cost[Marinha_Grande]
                    B              0                             
    55 Total_Cost[Povoa_de_Santa_Iria]
                    B              0                             
    56 Total_Cost[Sequeira]
                    B              0                             
    57 Total_Cost[Massama]
                    B              0                             
    58 Total_Cost[Matosinhos]
                    B              0                             
    59 Total_Cost[Gondomar]
                    B              0                             
    60 Total_Cost[Aguas_Santas]
                    B              0                             
    61 Total_Cost[Vila_do_Conde]
                    B              0                             
    62 Total_Cost[Caldas_da_Rainha]
                    B              0                             
    63 Total_Cost[Canidelo]
                    B              0                             
    64 Total_Cost[Viseu]
                    B              0                             
    65 Total_Cost[Sintra]
                    B              0                             
    66 Total_Cost[Paco_de_Arcos]
                    B              0                             
    67 Total_Cost[Sao_Mamede_de_Infesta]
                    B              0                             
    68 Total_Cost[Quinta_Do_Conde]
                    B              0                             
    69 Total_Cost[Torres_Vedras]
                    B              0                             
    70 Total_Cost[Oliveira_do_Douro]
                    B              0                             
    71 Total_Cost[Fanzeres]
                    B              0                             
    72 Total_Cost[Estoril]
                    B              0                             
    73 Total_Cost[Carnaxide]
                    B              0                             
    74 Total_Cost[Pinhal_Novo]
                    B              0                             
    75 Total_Cost[Monte_Estoril]
                    B              0                             
    76 Total_Cost[Pontinha]
                    B              0                             
    77 Total_Cost[Loule]
                    B              0                             
    78 Total_Cost[Arcos_de_Valdevez]
                    B              0                             
    79 Total_Cost[Moscavide_e_Portela]
                    B              0                             
    80 Total_Cost[Sao_Joao_da_Madeira]
                    B              0                             
    81 Total_Cost[Lavradio]
                    B              0                             
    82 Total_Cost[Bougado]
                    B              0                             
    83 Total_Cost[Valongo]
                    B              0                             
    84 Total_Cost[Caparica]
                    B              0                             
    85 Total_Cost[Belas]
                    B              0                             
    86 Total_Cost[Laranjeira]
                    B              0                             
    87 Total_Cost[Linda-a-Velha]
                    B              0                             
    88 Total_Cost[Trofa]
                    B              0                             
    89 Total_Cost[Baiao]
                    B              0                             
    90 Total_Cost[Laranjeiro]
                    B              0                             
    91 Total_Cost[Carcavelos]
                    B              0                             
    92 Total_Cost[Camarate]
                    B              0                             
    93 Total_Cost[Entroncamento]
                    B              0                             
    94 Total_Cost[Paredes]
                    B              0                             
    95 Total_Cost[Moncao]
                    B              0                             
    96 Total_Cost[Piedade]
                    B              0                             
    97 Total_Cost[Custoias]
                    B              0                             
    98 Total_Cost[Alges]
                    B              0                             
    99 Total_Cost[Tomar]
                    B              0                             
   100 Total_Cost[Barcelos]
                    B              0                             
   101 Total_Cost[Pedroso]
                    B              0                             
   102 Total_Cost[Vilar_de_Andorinho]
                    B              0                             
   103 Total_Cost[Sao_Joao_da_Talha]
                    B              0                             
   104 Total_Cost[Azeitao]
                    B              0                             
   105 Total_Cost[Lagos]
                    B              0                             
   106 Total_Cost[Quarteira]
                    B              0                             
   107 Total_Cost[Santa_Iria_da_Azoia]
                    B              0                             
   108 Total_Cost[Ovar]
                    B              0                             
   109 Total_Cost[Vila_Franca_de_Xira]
                    B              0                             
   110 Total_Cost[Leca_da_Palmeira]
                    B              0                             
   111 Total_Cost[Moita]
                    B              0                             
   112 Total_Cost[Sacavem]
                    B              0                             
   113 Total_Cost[Covilha]
                    B              0                             
   114 Total_Cost[Ramada]
                    B              0                             
   115 Total_Cost[Chaves]
                    B              0                             
   116 Total_Cost[Pombal]
                    B              0                             
   117 Total_Cost[Ilhavo]
                    B              0                             
   118 Total_Cost[Parede]
                    B              0                             
   119 Total_Cost[Condeixa-a-Nova]
                    B              0                             
   120 Total_Cost[Alfragide]
                    B              0                             
   121 Total_Cost[Sao_Pedro_da_Cova]
                    B              0                             
   122 Total_Cost[Vila_Real]
                    B              0                             
   123 Total_Cost[Palmela]
                    B              0                             
   124 Total_Cost[Fafe]
                    B              0                             
   125 Total_Cost[Cabeceiras_de_Basto]
                    B              0                             
   126 Total_Cost[Feira]
                    B              0                             
   127 Total_Cost[Leca_do_Bailio]
                    B              0                             
   128 Total_Cost[Vialonga]
                    B              0                             
   129 Total_Cost[Albufeira]
                    B              0                             
   130 Total_Cost[Baguim_do_Monte]
                    B              0                             
   131 Total_Cost[Alcobaca]
                    B              0                             
   132 Total_Cost[Peniche]
                    B              0                             
   133 Total_Cost[Portalegre]
                    B              0                             
   134 Total_Cost[Alfena]
                    B              0                             
   135 Total_Cost[Tavira]
                    B              0                             
   136 Total_Cost[Torres_Novas]
                    B              0                             
   137 Total_Cost[Povoa_de_Santo_Adriao]
                    B              0                             
   138 Total_Cost[Gafanha_da_Nazare]
                    B              0                             
   139 Total_Cost[Vilar_do_Paraiso]
                    B              0                             
   140 Total_Cost[Valbom]
                    B              0                             
   141 Total_Cost[Arcozelo]
                    B              0                             
   142 Total_Cost[Canelas]
                    B              0                             
   143 Total_Cost[Costa_de_Caparica]
                    B              0                             
   144 Total_Cost[Valenza]
                    B              0                             
   145 Total_Cost[Samora_Correia]
                    B              0                             
   146 Total_Cost[Santo_Tirso]
                    B              0                             
   147 Total_Cost[Porto_Salvo]
                    B              0                             
   148 Total_Cost[Abrantes]
                    B              0                             
   149 Total_Cost[Esgueira]
                    B              0                             
   150 Total_Cost[Alhos_Vedros]
                    B              0                             
   151 Total_Cost[Moreira1]
                    B              0                             
   152 Total_Cost[Montemor-o-Novo]
                    B              0                             
   153 Total_Cost[Sines]
                    B              0                             
   154 Total_Cost[Beato_Antonio]
                    B              0                             
   155 Total_Cost[Ourem]
                    B              0                             
   156 Total_Cost[Pedroucos]
                    B              0                             
   157 Total_Cost[Perafita]
                    B              0                             
   158 Total_Cost[Mirandela]
                    B              0                             
   159 Total_Cost[Azenha]
                    B              0                             
   160 Total_Cost[Mafra]
                    B              0                             
   161 Total_Cost[Aldeia_de_Paio_Pires]
                    B              0                             
   162 Total_Cost[Tabua]
                    B              0                             
   163 Total_Cost[Rio_Maior]
                    B              0                             
   164 Total_Cost[Barcarena]
                    B              0                             
   165 Total_Cost[Alijo]
                    B              0                             
   166 Total_Cost[Agueda]
                    B              0                             
   167 Total_Cost[Fatima]
                    B              0                             
   168 Total_Cost[Oliveira_de_Azemeis]
                    B              0                             
   169 Total_Cost[Semelhe]
                    B              0                             
   170 Total_Cost[Real]
                    B              0                             
   171 Total_Cost[Sao_Felix_da_Marinha]
                    B              0                             
   172 Total_Cost[Santa_Comba_Dao]
                    B              0                             
   173 Total_Cost[Avintes]
                    B              0                             
   174 Total_Cost[Vila_Real_de_Santo_Antonio]
                    B              0                             
   175 Total_Cost[Almeirim]
                    B              0                             
   176 Total_Cost[Rebordosa]
                    B              0                             
   177 Total_Cost[Lousa]
                    B              0                             
   178 Total_Cost[Esmoriz]
                    B              0                             
   179 Total_Cost[Calendario]
                    B              0                             
   180 Total_Cost[Moreira2]
                    B              0                             
   181 Total_Cost[Vendas_Novas]
                    B              0                             
   182 Total_Cost[Santo_Andre1]
                    B              0                             
   183 Total_Cost[Obidos]
                    B              0                             
   184 Total_Cost[Sao_Bras_de_Alportel]
                    B              0                             
   185 Total_Cost[Sobreda]
                    B              0                             
   186 Total_Cost[Santo_Antonio_da_Charneca]
                    B              0                             
   187 Total_Cost[Cucujaes]
                    B              0                             
   188 Total_Cost[Ponte_de_Sor]
                    B              0                             
   189 Total_Cost[Foz_do_Douro]
                    B              0                             
   190 Total_Cost[Canecas]
                    B              0                             
   191 Total_Cost[Anta]
                    B              0                             
   192 Total_Cost[Lamego]
                    B              0                             
   193 Total_Cost[Silves]
                    B              0                             
   194 Total_Cost[Grijo]
                    B              0                             
   195 Total_Cost[Vale_da_Amoreira]
                    B              0                             
   196 Total_Cost[Grandola]
                    B              0                             
   197 Total_Cost[Unhos]
                    B              0                             
   198 Total_Cost[Gulpilhares]
                    B              0                             
   199 Total_Cost[Margaride]
                    B              0                             
   200 Total_Cost[Santo_Andre2]
                    B              0                             
   201 Total_Cost[Charneca]
                    B              0                             
   202 Total_Cost[Cartaxo]
                    B              0                             
   203 Total_Cost[Aver-o-Mar]
                    B              0                             
   204 Total_Cost[Sao_Joao_das_Lampas]
                    B              0                             
   205 Total_Cost[Carregado]
                    B              0                             
   206 Total_Cost[Melres]
                    B              0                             
   207 Total_Cost[Caldas_de_Vizela]
                    B              0                             
   208 Total_Cost[Selho]
                    B              0                             
   209 Total_Cost[Moimenta_da_Beira]
                    B              0                             
   210 Total_Cost[Lordelo]
                    B              0                             
   211 Total_Cost[Meadela]
                    B              0                             
   212 Total_Cost[Elvas]
                    B              0                             
   213 Total_Cost[Almancil]
                    B              0                             
   214 Total_Cost[Maceira]
                    B              0                             
   215 Total_Cost[Fundao]
                    B              0                             
   216 Total_Cost[Alcochete]
                    B              0                             
   217 Total_Cost[Santa_Clara]
                    B              0                             
   218 Total_Cost[Lavra]
                    B              0                             
   219 Total_Cost[Alenquer]
                    B              0                             
   220 Total_Cost[Lourosa]
                    B              0                             
   221 Total_Cost[Madalena]
                    B              0                             
   222 Total_Cost[Sao_Joao_de_Ver]
                    B              0                             
   223 Total_Cost[Rio_de_Loba]
                    B              0                             
   224 Total_Cost[Vila_Nova_de_Famalicao]
                    B              0                             
   225 Total_Cost[Famoes]
                    B              0                             
   226 Total_Cost[Moura]
                    B              0                             
   227 Total_Cost[Estremoz]
                    B              0                             
   228 Total_Cost[Abraveses]
                    B              0                             
   229 Total_Cost[Valadares]
                    B              0                             
   230 Total_Cost[Guifoes]
                    B              0                             
   231 Total_Cost[Alcacer_do_Sal]
                    B              0                             
   232 Total_Cost[Lourinha]
                    B              0                             
   233 Total_Cost[Gondizalves]
                    B              0                             
   234 Total_Cost[Quinta_do_Anjo]
                    B              0                             
   235 Total_Cost[Vinhais]
                    B              0                             
   236 Total_Cost[Marco_de_Canavezes]
                    B              0                             
   237 Total_Cost[Caxias]
                    B              0                             
   238 Total_Cost[Mem_Martins]
                    B              0                             
   239 Total_Cost[Nazare]
                    B              0                             
   240 Total_Cost[Benavente]
                    B              0                             
   241 Total_Cost[Campo]
                    B              0                             
   242 Total_Cost[Mangualde]
                    B              0                             
   243 Total_Cost[Queijas]
                    B              0                             
   244 Total_Cost[Tondela]
                    B              0                             
   245 Total_Cost[Coruche]
                    B              0                             
   246 Total_Cost[Argoncilhe]
                    B              0                             
   247 Total_Cost[Ribeirao]
                    B              0                             
   248 Total_Cost[Fiaes]
                    B              0                             
   249 Total_Cost[Sao_Romao_do_Coronado]
                    B              0                             
   250 Total_Cost[Estombar]
                    B              0                             
   251 Total_Cost[Tavarede]
                    B              0                             
   252 Total_Cost[Torre_de_Moncorvo]
                    B              0                             
   253 Total_Cost[Benedita]
                    B              0                             
   254 Total_Cost[Moncarapacho]
                    B              0                             
   255 Total_Cost[Aves]
                    B              0                             
   256 Total_Cost[Alpendurada]
                    B              0                             
   257 Total_Cost[Soure]
                    B              0                             
   258 Total_Cost[Bobadela]
                    B              0                             
   259 Total_Cost[Sao_Bartolomeu_de_Messines]
                    B              0                             
   260 Total_Cost[Casteloes_de_Cepeda]
                    B              0                             
   261 Total_Cost[Vila_Vicosa]
                    B              0                             
   262 Total_Cost[Atouguia_da_Baleia]
                    B              0                             
   263 Total_Cost[Murtosa]
                    B              0                             
   264 Total_Cost[Almargem]
                    B              0                             
   265 Total_Cost[Campo_Maior]
                    B              0                             
   266 Total_Cost[Beduido]
                    B              0                             
   267 Total_Cost[Darque]
                    B              0                             
   268 Total_Cost[Penafiel]
                    B              0                             
   269 Total_Cost[Serzedo1]
                    B              0                             
   270 Total_Cost[Freamunde]
                    B              0                             
   271 Total_Cost[Albergaria-a-Velha]
                    B              0                             
   272 Total_Cost[Alpiarca]
                    B              0                             
   273 Total_Cost[Batalha]
                    B              0                             
   274 Total_Cost[Colares]
                    B              0                             
   275 Total_Cost[Serzedo2]
                    B              0                             
   276 Total_Cost[Sao_Joao_da_Pesqueira]
                    B              0                             
   277 Total_Cost[Ferreiros]
                    B              0                             
   278 Total_Cost[Joane]
                    B              0                             
   279 Total_Cost[Buarcos]
                    B              0                             
   280 Total_Cost[Miranda_do_Corvo]
                    B              0                             
   281 Total_Cost[Santiago_do_Cacem]
                    B              0                             
   282 Total_Cost[Sande]
                    B              0                             
   283 Total_Cost[Pragal]
                    B              0                             
   284 Total_Cost[Mira]
                    B              0                             
   285 Total_Cost[Castanheira_do_Ribatejo]
                    B              0                             
   286 Total_Cost[Vale_de_Cambra]
                    B              0                             
   287 Total_Cost[Ericeira]
                    B              0                             
   288 Total_Cost[Mondim_de_Basto]
                    B              0                             
   289 Total_Cost[Miranda_do_Douro]
                    B              0                             
   290 Total_Cost[Nisa]
                    B              0                             
   291 Total_Cost[Almodovar]
                    B              0                             
   292 Total_Cost[Cantanhede]
                    B              0                             
   293 Total_Cost[Vila_Nova_da_Barquinha]
                    B              0                             
   294 Total_Cost[Vila_Nova_de_Foz_Coa]
                    B              0                             
   295 Total_Cost[Apulia_e_Fao]
                    B              0                             
   296 Total_Cost[Aradas]
                    B              0                             
   297 Total_Cost[Mertola]
                    B              0                             
   298 Total_Cost[Mozelos]
                    B              0                             
   299 Total_Cost[Alhandra]
                    B              0                             
   300 Total_Cost[Reguengos_de_Monsaraz]
                    B              0                             
   301 Total_Cost[Silvalde]
                    B              0                             
   302 Total_Cost[Apelacao]
                    B              0                             
   303 Total_Cost[Azambuja]
                    B              0                             
   304 Total_Cost[Oia]
                    B              0                             
   305 Total_Cost[Seia]
                    B              0                             
   306 Total_Cost[Jovim]
                    B              0                             
   307 Total_Cost[Ponte]
                    B              0                             
   308 Total_Cost[Valega]
                    B              0                             
   309 Total_Cost[Silveira]
                    B              0                             
   310 Total_Cost[Arrifana]
                    B              0                             
   311 Total_Cost[Arcos1]
                    B              0                             
   312 Total_Cost[Pacos_de_Ferreira]
                    B              0                             
   313 Total_Cost[Amarante]
                    B              0                             
   314 Total_Cost[Sao_Joao]
                    B              0                             
   315 Total_Cost[Arcos2]
                    B              0                             
   316 Total_Cost[Sobrado]
                    B              0                             
   317 Total_Cost[Aveleda]
                    B              0                             
   318 Total_Cost[Negrelos]
                    B              0                             
   319 Total_Cost[Fazendas_de_Almeirim]
                    B              0                             
   320 Total_Cost[A_dos_Cunhados]
                    B              0                             
   321 Total_Cost[Serpa]
                    B              0                             
   322 Total_Cost[Macedo_de_Cavaleiros]
                    B              0                             
   323 Total_Cost[Avanca]
                    B              0                             
   324 Total_Cost[Prior_Velho]
                    B              0                             
   325 Total_Cost[Sao_Romao]
                    B              0                             
   326 Total_Cost[Cacilhas]
                    B              0                             
   327 Total_Cost[Sandim]
                    B              0                             
   328 Total_Cost[Carrazeda_de_Anciaes]
                    B              0                             
   329 Total_Cost[Sabrosa]
                    B              0                             
   330 Total_Cost[Tabuaco]
                    B              0                             
   331 Total_Cost[Foz_do_Sousa]
                    B              0                             
   332 Total_Cost[Lagoa]
                    B              0                             
   333 Total_Cost[Perozinho]
                    B              0                             
   334 Total_Cost[Oliveira_do_Bairro]
                    B              0                             
   335 Total_Cost[Santa_Cruz_do_Bispo]
                    B              0                             
   336 Total_Cost[Oliveira]
                    B              0                             
   337 Total_Cost[Arruda_dos_Vinhos]
                    B              0                             
   338 Total_Cost[Aljubarrota]
                    B              0                             
   339 Total_Cost[Marinhas]
                    B              0                             
   340 Total_Cost[Lobao]
                    B              0                             
   341 Total_Cost[Gandra]
                    B              0                             
   342 Total_Cost[Porto_de_Mos]
                    B              0                             
   343 Total_Cost[Fontanelas]
                    B              0                             
   344 Total_Cost[Eixo]
                    B              0                             
   345 Total_Cost[Olival_do_Basto]
                    B              0                             
   346 Total_Cost[Milharado]
                    B              0                             
   347 Total_Cost[Vidigueira]
                    B              0                             
   348 Total_Cost[Arazede]
                    B              0                             
   349 Total_Cost[Aljezur]
                    B              0                             
   350 Total_Cost[Bombarral]
                    B              0                             
   351 Total_Cost[Vila_Nova_da_Telha]
                    B              0                             
   352 Total_Cost[Redondo]
                    B              0                             
   353 Total_Cost[Odemira]
                    B              0                             
   354 Total_Cost[Vieira_de_Leiria]
                    B              0                             
   355 Total_Cost[Marinhais]
                    B              0                             
   356 Total_Cost[Monte_Real]
                    B              0                             
   357 Total_Cost[Boticas]
                    B              0                             
   358 Total_Cost[Caldelas]
                    B              0                             
   359 Total_Cost[Caldas_das_Taipas]
                    B              0                             
   360 Total_Cost[Oleiros]
                    B              0                             
   361 Total_Cost[Olival]
                    B              0                             
   362 Total_Cost[Sernancelhe]
                    B              0                             
   363 Total_Cost[Serta]
                    B              0                             
   364 Total_Cost[Branca]
                    B              0                             
   365 Total_Cost[Lamas]
                    B              0                             
   366 Total_Cost[Moreira_de_Conegos]
                    B              0                             
   367 Total_Cost[Trafaria]
                    B              0                             
   368 Total_Cost[Carregal_do_Sal]
                    B              0                             
   369 Total_Cost[Sao_Roque]
                    B              0                             
   370 Total_Cost[Barrosas]
                    B              0                             
   371 Total_Cost[Vilela]
                    B              0                             
   372 Total_Cost[Poiares]
                    B              0                             
   373 Total_Cost[Pataias]
                    B              0                             
   374 Total_Cost[Aguiar_da_Beira]
                    B              0                             
   375 Total_Cost[Riachos]
                    B              0                             
   376 Total_Cost[Urgeses]
                    B              0                             
   377 Total_Cost[Monchique]
                    B              0                             
   378 Total_Cost[Sao_Miguel_do_Couto]
                    B              0                             
   379 Total_Cost[Galegos]
                    B              0                             

   No. Column name  St   Activity     Lower bound   Upper bound    Marginal
------ ------------ -- ------------- ------------- ------------- -------------

Karush-Kuhn-Tucker optimality conditions:

KKT.PE: max.abs.err = 0.00e+00 on row 0
        max.rel.err = 0.00e+00 on row 0
        High quality

KKT.PB: max.abs.err = 0.00e+00 on row 0
        max.rel.err = 0.00e+00 on row 0
        High quality

KKT.DE: max.abs.err = 0.00e+00 on column 0
        max.rel.err = 0.00e+00 on column 0
        High quality

KKT.DB: max.abs.err = 0.00e+00 on row 0
        max.rel.err = 0.00e+00 on row 0
        High quality

End of output
